
List of user-set options:

                                    Name   Value                used
                           compl_inf_tol = 1                     yes
                         constr_viol_tol = 1                     yes
                            dual_inf_tol = 1000                  yes
                           linear_solver = ma97                  yes
                              ma86_small = 1e-30                  no
                                  ma86_u = 0.0001                 no
                              ma97_order = best                  yes
                              ma97_small = 1e-30                 yes
                            ma97_switch1 = at_start              yes
                            ma97_switch2 = od_hd_reuse           yes
                                  ma97_u = 1e-06                 yes
                               ma97_umax = 0.5                   yes
                                max_iter = 2000                  yes
                    max_refinement_steps = 20                    yes
                    min_refinement_steps = 5                     yes
                                 mu_init = 1e-06                 yes
           mu_superlinear_decrease_power = 1.25                  yes
                   nlp_scaling_min_value = 1e-08                 yes
                        option_file_name = Preset_Case:_336_NCP.opt  yes
                             output_file = ./tmp/Preset_Case:_336_NCP.output  yes
                      print_user_options = yes                   yes
        required_infeasibility_reduction = 1                      no
                                     tol = 1e-08                 yes
                   warm_start_bound_frac = 1e-20                 yes
                   warm_start_bound_push = 1e-20                 yes
                   warm_start_init_point = yes                   yes
              warm_start_mult_bound_push = 1e-20                 yes
                warm_start_mult_init_max = 1e+40                 yes
             warm_start_slack_bound_frac = 1e-20                 yes
             warm_start_slack_bound_push = 1e-20                 yes

******************************************************************************
This program contains Ipopt, a library for large-scale nonlinear optimization.
 Ipopt is released as open source code under the Eclipse Public License (EPL).
         For more information visit http://projects.coin-or.org/Ipopt
******************************************************************************

This is Ipopt version 3.12.10, running with linear solver ma97.

Number of nonzeros in equality constraint Jacobian...:   117140
Number of nonzeros in inequality constraint Jacobian.:      213
Number of nonzeros in Lagrangian Hessian.............:    47462

Total number of variables............................:    29971
                     variables with only lower bounds:    11312
                variables with lower and upper bounds:    15132
                     variables with only upper bounds:        0
Total number of equality constraints.................:    29864
Total number of inequality constraints...............:       25
        inequality constraints with only lower bounds:        4
   inequality constraints with lower and upper bounds:        0
        inequality constraints with only upper bounds:       21

iter    objective    inf_pr   inf_du lg(mu)  ||d||  lg(rg) alpha_du alpha_pr  ls
   0 -5.6472711e-02 4.30e-02 2.42e+02  -6.0 0.00e+00    -  0.00e+00 0.00e+00   0
In iteration 0, 3 Slacks too small, adjusting variable bounds
   1 -5.6472711e-02 4.30e-02 9.35e+03  -6.0 9.63e+05  -2.0 2.57e-08 3.16e-16f  1
   2 -5.6472711e-02 4.30e-02 9.35e+03  -6.0 1.26e+03  -2.5 1.10e-04 2.40e-09f  1
   3 -5.6473408e-02 4.30e-02 9.35e+03  -6.0 1.64e+03  -3.0 1.68e-04 8.69e-05f  1
   4 -5.6395291e-02 4.29e-02 9.34e+03  -6.0 1.62e+03  -3.4 1.00e-03 1.32e-03f  1
   5 -5.6393522e-02 4.29e-02 9.33e+03  -6.0 1.58e+03  -3.0 1.46e-03 9.20e-04f  1
   6 -5.6384029e-02 4.29e-02 9.32e+03  -6.0 1.53e+03  -2.6 4.96e-04 7.39e-04f  1
   7 -5.6342991e-02 4.28e-02 9.32e+03  -6.0 1.48e+03  -3.1 2.00e-05 1.72e-03f  3
   8 -5.6303125e-02 4.27e-02 9.31e+03  -6.0 1.40e+03  -2.6 8.85e-04 1.59e-03h  1
   9 -5.6262713e-02 4.27e-02 9.31e+03  -6.0 1.25e+03  -3.1 8.39e-04 8.97e-04h  3
iter    objective    inf_pr   inf_du lg(mu)  ||d||  lg(rg) alpha_du alpha_pr  ls
  10 -5.6223075e-02 4.26e-02 9.29e+03  -6.0 1.26e+03  -2.7 1.80e-03 1.10e-03h  3
  11 -5.6205015e-02 4.26e-02 9.26e+03  -6.0 1.14e+03  -3.2 2.87e-03 3.56e-04h  4
  12 -5.6167977e-02 4.26e-02 1.78e+04  -6.0 1.18e+03  -2.7 6.60e-03 9.15e-04h  3
  13 -5.6152421e-02 4.26e-02 1.88e+04  -6.0 1.07e+03  -3.2 3.85e-03 3.02e-04h  4
  14 -5.6119446e-02 4.25e-02 1.68e+06  -6.0 1.13e+03  -2.8 5.70e-01 7.64e-04h  3
  15 -5.6104724e-02 4.25e-02 1.68e+06  -6.0 1.02e+03  -3.3 1.09e-03 2.52e-04h  4
  16 -5.6076726e-02 4.25e-02 1.68e+06  -6.0 1.09e+03  -2.8 5.36e-03 6.23e-04h  3
  17 -5.6068174e-02 4.25e-02 1.68e+06  -6.0 9.82e+02  -3.3 3.02e-03 2.04e-04h  4
  18 -5.6045598e-02 4.25e-02 1.68e+06  -6.0 1.05e+03  -2.9 1.12e-02 4.95e-04h  3
  19 -5.6023219e-02 4.24e-02 1.67e+06  -6.0 9.85e+02  -3.4 3.77e-03 1.50e-03w  1
iter    objective    inf_pr   inf_du lg(mu)  ||d||  lg(rg) alpha_du alpha_pr  ls
  20 -5.6021921e-02 4.24e-02 1.68e+06  -6.0 1.14e+03  -2.9 3.73e-02 5.59e-04w  1
  21 -5.6432906e-02 1.03e-01 1.66e+06  -6.0 1.10e+03  -3.4 8.42e-03 7.51e-03h  1
  22 -5.6394697e-02 1.02e-01 1.81e+06  -6.0 1.00e+03  -3.0 1.30e-01 2.91e-03h  3
  23 -5.6450892e-02 7.27e-02 2.04e+06  -6.0 9.13e+02  -3.5 6.18e-02 5.43e-03h  1
  24 -5.6410576e-02 7.24e-02 5.78e+06  -6.0 8.85e+02  -3.0 4.37e-01 3.63e-03h  4
  25 -5.6751048e-02 7.66e-02 5.72e+06  -6.0 8.99e+02  -3.5 2.27e-02 5.63e-03h  1
  26 -5.6636182e-02 7.78e-02 5.84e+06  -6.0 7.79e+02  -3.1 5.83e-02 9.99e-03h  1
  27 -5.6757019e-02 8.67e-02 5.59e+06  -6.0 8.36e+02  -3.6 1.06e-01 3.76e-03h  1
  28 -5.6733718e-02 8.66e-02 6.03e+06  -6.0 6.73e+02  -3.1 1.54e-01 1.03e-03h  7
  29 -5.6722480e-02 8.66e-02 1.09e+07  -6.0 6.83e+02  -2.7 4.11e-01 6.42e-04h  8
iter    objective    inf_pr   inf_du lg(mu)  ||d||  lg(rg) alpha_du alpha_pr  ls
  30 -5.6716099e-02 8.66e-02 1.06e+07  -6.0 6.59e+02  -3.2 8.00e-02 2.74e-04h  7
  31 -5.6714704e-02 8.66e-02 1.17e+07  -6.0 6.76e+02  -2.8 1.94e-01 7.75e-05h 11
  32 -5.6713704e-02 8.66e-02 1.13e+07  -6.0 6.54e+02  -3.2 1.04e-01 4.28e-05h  7
  33 -5.6624367e-02 8.63e-02 1.21e+07  -6.0 6.74e+02  -2.8 2.66e-01 4.83e-03h  5
  34 -5.6580293e-02 8.62e-02 1.16e+07  -6.0 6.22e+02  -3.3 1.01e-01 1.79e-03h  6
  35 -5.6498096e-02 8.59e-02 1.21e+07  -6.0 6.34e+02  -2.9 3.65e-01 4.34e-03h  5
  36 -5.6456085e-02 8.58e-02 1.15e+07  -6.0 5.87e+02  -3.3 1.05e-01 1.77e-03h  6
  37 -5.6379398e-02 8.56e-02 1.18e+07  -6.0 6.01e+02  -2.9 7.63e-01 4.10e-03h  5
  38 -5.4404018e-02 2.84e+00 1.04e+07  -6.0 5.60e+02  -3.4 1.02e-01 1.30e-01w  1
  39 -5.4394965e-02 2.76e+00 6.92e+06  -6.0 2.19e+02  -3.9 3.36e-01 2.82e-02w  1
iter    objective    inf_pr   inf_du lg(mu)  ||d||  lg(rg) alpha_du alpha_pr  ls
  40 -5.4261310e-02 2.71e+00 2.52e+06  -6.0 2.20e+02  -3.4 8.26e-01 1.96e-02w  1
  41 -5.6348533e-02 8.55e-02 1.11e+07  -6.0 2.09e+02  -3.9 1.02e-01 2.02e-03h  6
  42 -5.6321530e-02 8.56e-02 8.12e+06  -6.0 5.44e+02  -3.5 4.26e-01 2.05e-03h  7
  43 -5.6248769e-02 8.55e-02 8.14e+06  -6.0 5.65e+02  -3.1 1.19e-01 5.62e-03h  6
  44 -5.6202006e-02 8.59e-02 6.34e+06  -6.0 5.12e+02  -3.6 3.80e-01 3.67e-03h  6
  45 -5.6112603e-02 8.59e-02 6.46e+06  -6.0 5.31e+02  -3.1 1.44e-01 7.31e-03h  6
  46 -5.6075701e-02 8.62e-02 6.31e+06  -6.0 4.73e+02  -3.6 3.60e-02 3.28e-03h  6
  47 -5.6050144e-02 8.61e-02 6.31e+06  -6.0 4.82e+02  -3.2 4.43e-01 2.44e-03h  1
  48 -5.5952926e-02 8.71e-02 6.30e+06  -6.0 4.54e+02  -3.7 4.23e-05 6.05e-03h  5
  49r-5.5952926e-02 8.71e-02 1.00e+03  -1.4 0.00e+00  -2.3 0.00e+00 2.60e-07R  2
iter    objective    inf_pr   inf_du lg(mu)  ||d||  lg(rg) alpha_du alpha_pr  ls
  50r-5.5681636e-02 8.71e-02 1.00e+03  -1.4 1.69e+05    -  7.36e-07 5.76e-06f  1
  51r-5.5725495e-02 8.69e-02 1.36e+03  -1.4 4.34e+03    -  2.29e-09 6.88e-05f  1
  52r-5.5742727e-02 8.67e-02 1.26e+03  -1.4 2.36e+03    -  1.48e-04 6.64e-05f  1
  53 -5.5742721e-02 8.67e-02 1.24e+04  -6.0 1.49e+02    -  1.93e-01 1.56e-05h  1
  54 -5.5741515e-02 8.66e-02 1.52e+04  -6.0 2.27e+02    -  4.00e-02 1.95e-03h  1
  55 -5.5752116e-02 7.89e-02 1.38e+04  -6.0 2.29e+02    -  1.57e-01 1.44e-01h  2
  56 -5.5691958e-02 7.33e-02 3.85e+05  -6.0 1.74e+02    -  4.23e-01 8.15e-02h  1
  57 -5.5398425e-02 5.88e-02 2.31e+05  -6.0 1.51e+02    -  5.06e-01 4.40e-01H  1
  58 -5.5398375e-02 5.88e-02 6.10e+05  -6.0 4.16e+02    -  7.79e-02 1.79e-05h  1
  59 -5.5381452e-02 5.81e-02 7.18e+05  -6.0 4.27e+02    -  8.63e-02 1.41e-02h  5
iter    objective    inf_pr   inf_du lg(mu)  ||d||  lg(rg) alpha_du alpha_pr  ls
  60 -5.5335050e-02 5.64e-02 8.33e+05  -6.0 3.86e+02    -  1.51e-01 3.06e-02h  4
  61 -5.5280780e-02 5.49e-02 1.04e+06  -6.0 3.21e+02    -  3.07e-01 3.19e-02h  4
  62 -5.5214881e-02 5.36e-02 1.23e+06  -6.0 2.65e+02    -  3.76e-01 3.36e-02h  4
  63 -5.5176786e-02 5.29e-02 1.37e+06  -6.0 2.26e+02    -  4.31e-01 1.78e-02h  5
  64 -5.5133277e-02 5.22e-02 1.38e+06  -6.0 2.23e+02    -  3.14e-01 1.88e-02h  5
  65 -5.5088986e-02 5.15e-02 1.35e+06  -6.0 2.37e+02    -  4.91e-01 1.95e-02h  5
  66 -5.5066168e-02 5.11e-02 1.32e+06  -6.0 3.94e+02    -  1.72e-01 1.03e-02h  6
  67 -5.5043685e-02 5.06e-02 1.23e+06  -6.0 4.48e+02    -  5.31e-01 1.05e-02h  6
  68 -5.5033760e-02 5.04e-02 1.19e+06  -6.0 1.04e+03    -  1.27e-01 5.72e-03h  7
  69 -5.4528039e-02 4.25e+00 7.81e+05  -6.0 1.38e+03    -  3.81e-01 3.36e-01w  1
iter    objective    inf_pr   inf_du lg(mu)  ||d||  lg(rg) alpha_du alpha_pr  ls
  70 -5.4416145e-02 3.82e+00 6.67e+05  -6.0 5.61e+02    -  1.75e-01 1.26e-01w  1
  71 -5.4403494e-02 3.80e+00 6.69e+05  -6.0 1.35e+03    -  1.16e-02 4.35e-03w  1
  72 -5.5025858e-02 5.02e-02 1.09e+06  -6.0 8.50e+02    -  3.81e-01 5.26e-03h  6
  73 -5.4802686e-02 5.32e-02 3.85e+06  -6.0 1.93e+02  -2.8 3.37e-01 3.76e-02h  1
  74 -5.4638358e-02 5.45e-02 3.84e+06  -6.0 1.76e+02  -3.3 7.05e-01 3.42e-02h  4
  75 -5.4410135e-02 5.92e-02 3.14e+06  -6.0 1.62e+02  -3.8 2.92e-01 6.66e-02h  3
  76 -5.4320452e-02 5.91e-02 2.47e+06  -6.0 1.35e+02  -4.2 3.14e-01 6.39e-02h  3
  77 -5.4384782e-02 5.79e-02 2.35e+06  -6.0 1.44e+02  -4.7 6.76e-02 2.17e-02h  3
  78 -5.4304268e-02 5.58e-02 2.26e+06  -6.0 1.08e+02  -4.3 1.02e-02 4.97e-02h  3
  79 -5.3541177e-02 5.52e-02 2.26e+06  -6.0 2.93e+02  -4.8 6.76e-04 1.18e-02h  2
iter    objective    inf_pr   inf_du lg(mu)  ||d||  lg(rg) alpha_du alpha_pr  ls
  80  2.7123300e-02 5.55e-02 2.19e+06  -6.0 1.04e+02  -4.3 1.62e-03 1.27e-01h  2
  81  3.2773492e-02 7.25e-02 5.42e+05  -6.0 8.29e+01  -3.9 8.95e-01 5.25e-01H  1
  82 -5.1541588e-03 4.61e-02 3.48e+05  -6.0 3.40e+01  -4.4 1.73e-05 4.73e-01f  1
  83 -5.3446834e-02 2.50e-03 8.26e+04  -6.0 8.78e+00  -4.0 6.58e-01 9.90e-01h  1
  84 -5.3446927e-02 2.50e-03 3.18e+04  -6.0 2.71e+00  -4.4 2.85e-02 1.45e-04h  1
  85 -5.3865146e-02 2.88e-02 1.30e+06  -6.0 3.87e+00  -4.9 1.24e-01 5.09e-01f  1
  86r-5.3865146e-02 2.88e-02 1.00e+03  -1.9 0.00e+00  -5.4 0.00e+00 3.29e-07R  2
  87r-5.3868589e-02 2.35e-02 1.00e+03  -1.9 1.79e+03    -  2.76e-04 1.84e-04f  1
  88 -5.3869548e-02 1.72e-02 4.22e+07  -6.0 2.84e-01    -  6.95e-01 2.68e-01h  1
  89 -5.3912980e-02 1.67e-04 1.88e+08  -6.0 7.65e-01    -  2.68e-01 1.00e+00h  1
iter    objective    inf_pr   inf_du lg(mu)  ||d||  lg(rg) alpha_du alpha_pr  ls
  90 -5.3933683e-02 1.93e-05 1.81e+02  -6.0 1.31e-01    -  9.31e-01 1.00e+00h  1
  91 -5.4240126e-02 3.91e-03 5.45e+00  -6.0 2.06e+00    -  8.23e-01 1.00e+00h  1
  92 -5.4810402e-02 1.36e-02 4.31e+00  -6.0 1.15e+01    -  2.71e-01 3.27e-01h  2
  93 -5.4926419e-02 1.34e-02 3.66e+00  -6.0 1.65e+01    -  4.48e-01 4.80e-02h  4
  94 -5.5052872e-02 1.33e-02 7.45e+00  -6.0 3.15e+01    -  3.21e-01 2.79e-02h  5
  95 -5.5195123e-02 1.34e-02 1.02e+01  -6.0 4.80e+01    -  1.97e-01 2.14e-02h  6
  96 -6.0930477e-02 2.18e-01 6.47e+00  -6.0 6.94e+01    -  3.08e-01 6.74e-01H  1
  97 -6.3456598e-02 3.58e-01 8.07e+00  -6.0 2.56e+02    -  1.30e-01 1.40e-01h  1
  98 -6.3738619e-02 3.54e-01 7.88e+00  -6.0 9.14e+02    -  6.49e-05 1.45e-02h  1
  99 -6.3732745e-02 3.54e-01 7.88e+00  -6.0 8.49e+04    -  1.52e-04 6.47e-06f  8
iter    objective    inf_pr   inf_du lg(mu)  ||d||  lg(rg) alpha_du alpha_pr  ls
 100 -6.3933599e-02 3.50e-01 1.08e+01  -6.0 1.74e+02    -  2.27e-01 1.75e-02h  1
 101 -6.5911856e-02 4.85e-01 1.53e+01  -6.0 2.74e+02    -  2.50e-01 1.46e-01h  1
 102 -6.7017411e-02 5.25e-01 2.96e+01  -6.0 1.40e+02    -  4.30e-01 1.18e-01h  1
 103 -7.0447773e-02 1.14e+00 3.44e+01  -6.0 2.73e+02    -  4.95e-01 2.65e-01h  1
 104 -7.2181994e-02 1.18e+00 4.01e+01  -6.0 5.63e+02    -  4.99e-01 8.05e-02h  1
 105 -7.9802887e-02 2.38e+00 7.41e+01  -6.0 1.23e+03    -  3.21e-01 2.08e-01h  1
 106 -8.5780809e-02 3.10e+00 3.00e+02  -6.0 1.49e+03    -  5.14e-01 2.16e-01h  1
 107 -8.5925711e-02 2.89e+00 7.04e+02  -6.0 5.93e+01  -5.9 2.52e-02 6.54e-02h  1
 108 -8.7953104e-02 4.20e-01 2.83e+02  -6.0 3.99e+01  -6.3 5.66e-01 8.80e-01h  1
 109 -8.8630266e-02 2.52e-01 8.55e+01  -6.0 3.16e+01  -6.8 7.14e-01 6.55e-01h  1
iter    objective    inf_pr   inf_du lg(mu)  ||d||  lg(rg) alpha_du alpha_pr  ls
 110 -8.9331886e-02 8.89e-01 2.84e+02  -6.0 6.78e+01  -7.3 7.96e-01 3.14e-01h  1
 111 -9.3906274e-02 8.30e+00 7.76e+01  -6.0 1.91e+02  -7.8 9.18e-01 1.00e+00h  1
 112 -9.7672604e-02 6.53e+00 4.22e+02  -6.0 6.03e+02  -8.3 7.96e-01 3.80e-01h  1
 113 -1.0080808e-01 4.65e+00 1.45e+03  -6.0 5.06e+02  -7.8 1.23e-03 6.83e-01h  1
 114 -1.0260383e-01 1.46e+01 1.42e+03  -6.0 9.72e+02  -8.3 4.33e-01 1.66e-01h  1
 115 -1.0259024e-01 1.39e+01 1.14e+03  -6.0 2.33e+01  -3.4 2.00e-02 4.97e-02h  1
 116 -1.0258522e-01 1.38e+01 1.12e+03  -6.0 2.48e+01  -2.9 5.41e-03 7.72e-03h  1
 117 -1.0258128e-01 1.35e+01 1.08e+03  -6.0 2.06e+01  -2.5 1.72e-02 2.20e-02h  1
 118 -1.0257241e-01 1.35e+01 1.08e+03  -6.0 2.41e+02  -3.0 6.30e-04 8.16e-04h  1
 119 -1.0256255e-01 1.31e+01 1.10e+03  -6.0 2.12e+01  -2.6 5.25e-02 2.28e-02h  1
iter    objective    inf_pr   inf_du lg(mu)  ||d||  lg(rg) alpha_du alpha_pr  ls
 120 -1.0255775e-01 1.29e+01 1.08e+03  -6.0 1.93e+01  -2.1 1.80e-02 2.08e-02h  1
 121 -1.0255773e-01 1.29e+01 1.06e+03  -6.0 2.41e+01  -2.6 2.20e-02 9.17e-05h  1
 122 -1.0254022e-01 1.22e+01 1.01e+03  -6.0 1.92e+01  -2.2 9.09e-03 5.03e-02h  1
 123 -1.0253380e-01 1.21e+01 9.81e+02  -6.0 1.74e+01  -1.8 1.94e-01 1.14e-02h  1
 124 -1.0252281e-01 1.19e+01 9.62e+02  -6.0 1.87e+01  -2.2 2.37e-02 1.76e-02h  1
 125 -1.0248324e-01 1.08e+01 8.64e+02  -6.0 1.64e+01  -1.8 1.97e-01 9.07e-02h  1
 126 -1.0247305e-01 1.05e+01 8.32e+02  -6.0 1.22e+01  -1.4 1.60e-01 2.17e-02h  1
 127 -1.0238249e-01 9.69e+00 7.74e+02  -6.0 1.93e+01  -1.9 1.54e-02 7.94e-02h  1
 128 -1.0236979e-01 9.47e+00 7.31e+02  -6.0 7.08e+00  -1.4 1.74e-01 2.32e-02h  1
 129 -1.0232751e-01 9.14e+00 7.07e+02  -6.0 2.16e+01  -1.9 1.07e-02 3.47e-02h  1
iter    objective    inf_pr   inf_du lg(mu)  ||d||  lg(rg) alpha_du alpha_pr  ls
 130 -1.0231723e-01 8.88e+00 1.34e+03  -6.0 3.92e+00  -1.5 1.00e+00 2.88e-02h  1
 131 -1.0203987e-01 5.17e+00 6.30e+03  -6.0 9.91e+00  -2.0 7.99e-02 4.41e-01h  1
 132 -1.0213360e-01 5.14e-01 2.71e+03  -6.0 6.36e+00  -2.4 9.08e-04 1.00e+00h  1
 133 -1.0213767e-01 9.07e-04 4.20e+02  -6.0 6.14e-02  -2.9 7.83e-01 1.00e+00h  1
 134 -1.0214455e-01 3.22e-05 1.87e+02  -6.0 6.38e-02  -3.4 5.58e-01 1.00e+00h  1
 135 -1.0216601e-01 2.90e-04 8.20e+01  -6.0 1.86e-01  -3.9 5.61e-01 1.00e+00h  1
 136 -1.0223044e-01 2.52e-03 2.77e+01  -6.0 5.11e-01  -4.4 6.63e-01 1.00e+00h  1
 137 -1.0239621e-01 1.75e-02 1.11e+01  -6.0 1.39e+00  -4.8 6.04e-01 9.25e-01h  1
 138 -1.0249997e-01 2.17e-02 6.48e+00  -6.0 3.04e+00  -5.3 3.97e-01 2.73e-01f  1
 139 -1.0254267e-01 2.12e-02 1.55e+01  -6.0 5.41e+00  -5.8 1.00e+00 6.55e-02h  1
iter    objective    inf_pr   inf_du lg(mu)  ||d||  lg(rg) alpha_du alpha_pr  ls
 140 -1.0268271e-01 2.29e-02 1.77e+01  -6.0 1.90e+01  -6.3 3.49e-01 3.02e-01h  1
 141 -1.0296860e-01 4.29e-02 1.34e+02  -6.0 1.86e+01  -6.7 4.57e-01 1.00e+00f  1
 142 -1.0303274e-01 5.16e-03 8.12e-01  -6.0 2.02e+00  -5.4 1.00e+00 1.00e+00h  1
 143 -1.0317164e-01 1.42e-02 1.59e+00  -6.0 4.29e+00  -5.9 1.00e+00 1.00e+00h  1
 144 -1.0334485e-01 2.97e-02 3.66e+00  -6.0 9.25e+00  -6.4 1.00e+00 6.75e-01h  1
 145 -1.0374913e-01 2.35e-01 2.04e+01  -6.0 2.33e+01  -6.8 5.96e-01 1.00e+00h  1
 146 -1.0424506e-01 2.23e-01 2.17e+01  -6.0 6.61e+01  -7.3 1.00e+00 5.33e-01h  1
 147 -1.0452629e-01 2.04e-01 2.05e+01  -6.0 1.83e+02  -7.8 6.63e-01 1.14e-01h  1
 148 -1.1121784e-01 4.62e+00 1.16e+02  -6.0 4.92e+02  -8.3 6.58e-01 1.00e+00h  1
 149 -1.1209618e-01 6.32e+00 1.46e+02  -6.0 6.07e+03  -8.7 3.97e-02 6.93e-02h  1
iter    objective    inf_pr   inf_du lg(mu)  ||d||  lg(rg) alpha_du alpha_pr  ls
 150 -1.1268651e-01 7.03e+00 1.45e+02  -6.0 8.06e+01  -7.4 2.48e-01 7.22e-01h  1
 151 -1.1266383e-01 6.39e+00 8.93e+01  -6.0 5.90e+01  -7.0 3.33e-01 1.01e-01h  1
 152 -1.1286582e-01 5.54e+00 1.24e+02  -6.0 7.06e+01  -7.5 5.57e-02 1.95e-01h  1
 153 -1.1379119e-01 5.95e+00 1.21e+02  -6.0 1.99e+02  -7.9 7.52e-01 3.65e-01h  1
 154 -1.1560418e-01 5.00e+00 1.00e+02  -6.0 4.69e+02  -8.4 2.59e-03 3.61e-01h  1
 155 -1.1681894e-01 4.40e+00 6.95e+01  -6.0 1.24e+03  -8.9 5.01e-01 1.30e-01h  1
 156 -1.2017554e-01 9.32e+00 1.09e+02  -6.0 4.62e+02  -8.5 3.42e-01 1.00e+00h  1
 157 -1.2043959e-01 4.45e+00 1.34e+02  -6.0 2.72e+01  -6.2 2.75e-01 1.00e+00h  1
 158 -1.2052239e-01 4.63e+00 1.83e+02  -6.0 1.23e+01  -6.7 1.91e-01 4.24e-01h  1
 159 -1.2085600e-01 2.28e+00 1.44e+02  -6.0 7.49e+01  -7.2 6.99e-01 3.92e-01h  1
iter    objective    inf_pr   inf_du lg(mu)  ||d||  lg(rg) alpha_du alpha_pr  ls
 160 -1.2105971e-01 1.93e+00 1.04e+02  -6.0 6.65e+01  -7.7 3.49e-01 2.42e-01h  1
 161 -1.2200754e-01 8.44e-01 1.57e+02  -6.0 1.90e+02  -8.2 1.03e-04 6.14e-01f  1
 162 -1.2225716e-01 5.27e-01 9.76e+01  -6.0 8.65e+01  -7.7 3.34e-01 3.79e-01h  1
 163 -1.2243830e-01 4.59e-01 8.11e+01  -6.0 2.09e+02  -8.2 2.99e-04 1.30e-01h  1
 164 -1.2272295e-01 4.28e-01 7.44e+01  -6.0 5.13e+02  -8.7 1.65e-02 8.29e-02f  1
 165 -1.2368522e-01 5.86e-01 1.80e+01  -6.0 2.25e+02  -8.3 1.09e-01 7.59e-01f  1
 166 -1.2476099e-01 7.67e+00 3.56e+01  -6.0 6.13e+02  -6.0 5.43e-07 7.49e-01H  1
 167 -1.2473954e-01 6.10e+00 3.57e+01  -6.0 1.30e+02  -6.5 5.86e-01 2.07e-01h  1
 168 -1.2485902e-01 4.51e+00 2.51e+01  -6.0 3.45e+02  -7.0 3.94e-01 2.88e-01h  1
 169 -1.2489691e-01 1.37e+00 9.17e+00  -6.0 3.18e+01  -7.5 6.44e-01 6.98e-01h  1
iter    objective    inf_pr   inf_du lg(mu)  ||d||  lg(rg) alpha_du alpha_pr  ls
 170 -1.2526021e-01 4.26e-01 2.13e+00  -6.0 9.20e+01  -7.9 1.00e+00 9.23e-01h  1
 171 -1.2569535e-01 5.87e-01 4.21e+00  -6.0 2.46e+02  -8.4 1.00e+00 3.91e-01h  1
 172 -1.2718274e-01 1.64e+00 2.18e+01  -6.0 4.87e+02  -8.9 1.00e+00 7.87e-01h  1
 173 -1.2746292e-01 1.28e+00 1.83e+03  -6.0 6.39e+02  -8.5 1.00e+00 2.18e-01h  1
 174 -1.2949255e-01 4.94e+00 3.32e+02  -6.0 5.21e+02  -8.9 6.79e-01 1.00e+00h  1
 175 -1.2978421e-01 4.41e+00 7.47e+02  -6.0 1.08e+03  -9.4 2.78e-01 1.09e-01h  1
 176 -1.3153400e-01 5.37e+00 1.23e+02  -6.0 5.29e+03  -9.9 2.35e-01 3.03e-01h  1
 177 -1.3291567e-01 1.09e+01 6.36e+01  -6.0 5.49e+03 -10.4 1.13e-01 1.28e-01h  1
 178 -1.3310204e-01 1.06e+01 3.21e+03  -6.0 2.13e+03  -9.9 1.53e-01 4.21e-02h  1
 179 -1.3328626e-01 1.04e+01 3.19e+03  -6.0 2.07e+04 -10.4 2.03e-02 2.31e-02h  1
iter    objective    inf_pr   inf_du lg(mu)  ||d||  lg(rg) alpha_du alpha_pr  ls
 180 -1.3424324e-01 2.40e+01 1.84e+03  -6.0 8.89e+03 -10.9 3.93e-02 1.32e-01h  1
 181 -1.3429189e-01 2.28e+01 1.76e+03  -6.0 1.77e+02  -7.8 4.11e-02 5.10e-02h  1
 182 -1.3433316e-01 2.13e+01 1.66e+03  -6.0 1.89e+02  -7.3 4.78e-03 6.73e-02h  1
 183 -1.3436341e-01 2.01e+01 1.58e+03  -6.0 7.55e+02  -7.8 3.28e-02 5.38e-02h  1
Error in an AMPL evaluation. Run with "halt_on_ampl_error yes" to see details.
Warning: Cutting back alpha due to evaluation error
 184 -1.3435928e-01 1.96e+01 1.54e+03  -6.0 1.49e+03  -8.3 2.91e-03 2.89e-02h  2
 185 -1.3437830e-01 1.74e+01 1.37e+03  -6.0 1.70e+01  -6.1 1.03e-01 1.12e-01h  1
 186 -1.3436030e-01 1.34e+01 1.04e+03  -6.0 1.47e+01  -6.5 3.99e-01 2.30e-01h  1
 187 -1.3436303e-01 2.87e+00 2.24e+02  -6.0 1.38e+01  -7.0 9.36e-01 7.85e-01h  1
 188 -1.3451659e-01 1.66e+00 1.28e+02  -6.0 2.08e+01  -7.5 1.00e+00 4.21e-01h  1
 189 -1.3447117e-01 1.18e-01 1.45e+01  -6.0 3.77e+01  -8.0 1.00e+00 1.00e+00h  1
iter    objective    inf_pr   inf_du lg(mu)  ||d||  lg(rg) alpha_du alpha_pr  ls
 190 -1.3471566e-01 1.23e-01 2.70e+00  -6.0 1.11e+02  -8.4 1.00e+00 1.00e+00h  1
 191 -1.3525488e-01 7.87e-01 1.75e+00  -6.0 2.95e+02  -8.9 1.00e+00 1.00e+00h  1
 192 -1.3542002e-01 7.19e-01 1.61e+00  -6.0 1.23e+03  -9.4 1.01e-01 1.17e-01h  1
 193 -1.3549796e-01 7.16e-01 1.61e+00  -6.0 4.86e+04  -9.9 1.84e-03 3.52e-03h  1
 194 -1.3567154e-01 5.33e+00 2.21e+01  -6.0 3.57e+03 -10.4 7.50e-02 1.75e-01h  1
 195 -1.3567381e-01 5.28e+00 4.97e+01  -6.0 1.17e+00   1.5 2.94e-02 9.80e-03h  1
 196r-1.3567381e-01 5.28e+00 9.99e+02   0.4 0.00e+00   1.0 0.00e+00 3.79e-07R  2
 197r-1.3562905e-01 5.27e+00 5.06e+04   0.4 2.59e+04    -  3.27e-06 1.09e-06f  1
 198 -1.3569973e-01 5.26e+00 4.49e+02  -6.0 5.86e+04    -  9.54e-02 3.07e-03h  1
 199 -1.3571489e-01 5.25e+00 4.29e+02  -6.0 4.38e+04    -  2.58e-01 1.98e-03h  1
iter    objective    inf_pr   inf_du lg(mu)  ||d||  lg(rg) alpha_du alpha_pr  ls
 200 -1.3575591e-01 5.18e+00 4.08e+02  -6.0 5.43e+04    -  2.41e-01 1.55e-02h  3
 201 -1.3581262e-01 5.02e+00 3.56e+02  -6.0 2.61e+04    -  6.34e-01 4.75e-02h  1
 202 -1.3580053e-01 5.01e+00 3.56e+02  -6.0 7.06e+03    -  1.22e-02 4.24e-03h  1
Error in an AMPL evaluation. Run with "halt_on_ampl_error yes" to see details.
Warning: Cutting back alpha due to evaluation error
 203 -1.3578426e-01 5.01e+00 3.55e+02  -6.0 1.11e+04    -  2.22e-03 1.97e-03h  3
Error in an AMPL evaluation. Run with "halt_on_ampl_error yes" to see details.
Warning: Cutting back alpha due to evaluation error
 204 -1.3575502e-01 4.99e+00 3.53e+02  -6.0 6.71e+03    -  4.47e-03 4.85e-03h  2
Error in an AMPL evaluation. Run with "halt_on_ampl_error yes" to see details.
Warning: Cutting back alpha due to evaluation error
 205 -1.3572791e-01 4.95e+00 3.50e+02  -6.0 7.18e+03    -  7.21e-03 8.78e-03h  2
 206 -1.3572137e-01 4.93e+00 3.46e+02  -6.0 5.84e+03    -  2.45e-02 7.62e-03h  4
 207 -1.3570097e-01 4.92e+00 3.39e+02  -6.0 4.36e+03    -  6.02e-02 1.82e-02h  4
 208 -1.3570098e-01 4.92e+00 3.38e+02  -6.0 9.38e-01   0.5 1.38e-02 4.55e-05h  1
 209 -1.3569872e-01 4.87e+00 1.50e+03  -6.0 3.38e+00   0.1 4.17e-05 9.17e-03h  1
iter    objective    inf_pr   inf_du lg(mu)  ||d||  lg(rg) alpha_du alpha_pr  ls
 210 -1.3569821e-01 4.86e+00 1.27e+03  -6.0 2.85e+00  -0.4 2.41e-02 2.81e-03h  1
 211 -1.3569804e-01 4.83e+00 1.30e+03  -6.0 3.03e+00  -0.9 6.97e-03 5.21e-03h  1
 212 -1.3569792e-01 4.60e+00 1.07e+03  -6.0 3.22e+00  -1.4 2.63e-02 4.80e-02h  1
 213 -1.3569391e-01 4.54e+00 1.03e+03  -6.0 3.48e+00  -1.8 2.66e-02 1.36e-02h  1
 214 -1.3566424e-01 4.18e+00 9.33e+02  -6.0 5.34e+00  -2.3 3.35e-02 7.93e-02h  1
 215 -1.3564977e-01 3.99e+00 8.88e+02  -6.0 6.87e+00  -2.8 8.28e-02 4.58e-02h  1
 216 -1.3563943e-01 3.85e+00 8.80e+02  -6.0 4.60e+00  -2.4 1.14e-01 3.51e-02h  1
 217 -1.3560962e-01 3.43e+00 7.81e+02  -6.0 6.08e+00  -2.9 5.52e-01 1.07e-01h  1
 218 -1.3557781e-01 2.95e+00 6.32e+02  -6.0 3.86e+00  -2.4 1.73e-02 1.40e-01h  1
 219 -1.3554799e-01 2.51e+00 5.43e+02  -6.0 4.03e+00  -2.9 9.39e-01 1.50e-01h  1
iter    objective    inf_pr   inf_du lg(mu)  ||d||  lg(rg) alpha_du alpha_pr  ls
 220 -1.3550498e-01 1.84e+00 6.71e+02  -6.0 2.66e+00  -2.5 3.58e-02 2.68e-01h  1
 221 -1.3544375e-01 8.11e-01 2.48e+02  -6.0 2.13e+00  -3.0 2.62e-01 5.59e-01h  1
 222 -1.3542003e-01 6.67e-04 3.42e+01  -6.0 7.48e-01  -3.4 5.70e-01 1.00e+00h  1
 223 -1.3552823e-01 7.48e-04 5.26e+01  -6.0 5.29e-01  -3.9 1.73e-01 9.80e-01h  1
 224 -1.3550222e-01 5.15e-04 9.80e+00  -6.0 8.31e-01  -4.4 8.74e-01 4.36e-01h  1
 225 -1.3554083e-01 4.54e-04 4.74e+00  -6.0 4.85e+00  -4.9 7.16e-01 1.16e-01f  1
 226 -1.3549407e-01 1.29e-03 7.92e+00  -6.0 3.01e+00  -5.3 3.57e-01 1.98e-01f  1
 227 -1.3550116e-01 8.18e-04 1.74e+01  -6.0 1.48e+00  -5.8 1.00e+00 3.66e-01f  1
 228 -1.3553574e-01 8.42e-04 1.56e+00  -6.0 3.21e+00  -6.3 1.00e+00 7.43e-01f  1
 229 -1.3560185e-01 2.16e-03 1.19e+00  -6.0 8.87e+00  -6.8 1.00e+00 8.71e-01f  1
iter    objective    inf_pr   inf_du lg(mu)  ||d||  lg(rg) alpha_du alpha_pr  ls
 230 -1.3567624e-01 2.68e-03 2.43e+00  -6.0 1.53e+01  -7.2 1.00e+00 4.61e-01f  1
 231 -1.3568291e-01 2.75e-03 1.47e+00  -6.0 2.32e+01  -7.7 1.00e+00 8.89e-01f  1
 232 -1.3574613e-01 3.61e-03 8.02e-02  -6.0 7.34e+01  -8.2 1.00e+00 1.00e+00f  1
 233 -1.3585821e-01 1.59e-02 7.57e-02  -6.0 2.57e+02  -8.7 6.79e-01 6.64e-01h  1
 234 -1.3597092e-01 2.34e-01 2.56e-01  -6.0 1.35e+02  -9.2 1.00e+00 1.00e+00f  1
 235 -1.3612344e-01 5.93e-02 7.79e+00  -6.0 3.86e+02  -9.6 5.25e-01 9.78e-01H  1
 236 -1.3613143e-01 6.66e-01 2.53e+01  -6.0 1.84e+04    -  9.91e-02 1.28e-02h  2
 237 -1.3613691e-01 6.15e-01 5.39e+01  -6.0 1.39e+03 -10.1 1.00e+00 9.12e-02h  4
 238 -1.3613718e-01 6.05e-01 6.31e+01  -6.0 4.10e+03 -10.6 1.26e-01 1.74e-02h  6
 239 -1.3613790e-01 6.02e-01 6.59e+01  -6.0 1.88e+03 -10.2 6.60e-01 2.88e-02h  6
iter    objective    inf_pr   inf_du lg(mu)  ||d||  lg(rg) alpha_du alpha_pr  ls
 240 -1.3617246e-01 4.98e+00 1.94e+01  -6.0 5.88e+02  -9.7 5.52e-01 1.00e+00h  1
 241 -1.3618388e-01 2.12e+00 1.26e+01  -6.0 2.35e+02  -9.3 2.54e-01 9.52e-01h  1
 242 -1.3618725e-01 7.16e-02 1.06e-01  -6.0 6.83e+01  -8.9 1.00e+00 1.00e+00h  1
 243 -1.3613065e-01 5.82e+01 5.90e+01  -6.0 3.25e+03    -  2.66e-01 1.00e+00h  1
 244 -1.3614717e-01 4.58e+00 1.13e+01  -6.0 8.08e+02    -  1.00e+00 1.00e+00h  1
 245 -1.3621484e-01 2.33e+00 3.67e+00  -6.0 2.56e+02  -9.4 1.00e+00 1.00e+00h  1
 246 -1.3618079e-01 3.97e-02 9.91e-02  -6.0 9.23e+01  -8.9 1.00e+00 1.00e+00h  1
 247 -1.3628497e-01 9.04e+00 2.15e+01  -6.0 5.37e+02  -9.4 1.00e+00 1.00e+00h  1
 248 -1.3637338e-01 1.26e+01 2.68e+01  -6.0 3.57e+03    -  8.22e-02 9.79e-02h  1
 249 -1.3659249e-01 8.31e-01 3.19e+00  -6.0 6.99e+02    -  1.00e+00 1.00e+00h  1
iter    objective    inf_pr   inf_du lg(mu)  ||d||  lg(rg) alpha_du alpha_pr  ls
 250 -1.3671312e-01 1.66e+00 2.82e+00  -6.0 4.29e+02    -  9.13e-01 1.00e+00h  1
 251 -1.3681171e-01 9.38e-01 7.50e-01  -6.0 4.56e+02    -  1.00e+00 1.00e+00h  1
 252 -1.3682657e-01 3.70e-02 3.12e-01  -6.0 6.32e+01    -  1.00e+00 1.00e+00h  1
 253 -1.3682371e-01 5.79e-04 2.26e-03  -6.0 7.40e+00    -  1.00e+00 1.00e+00h  1
 254 -1.3682358e-01 8.29e-07 1.20e-06  -6.0 4.71e-01    -  1.00e+00 1.00e+00h  1
 255 -1.3734376e-01 4.05e+00 1.96e+01  -7.5 4.22e+03    -  1.24e-01 1.75e-01h  1
 256 -1.3783224e-01 8.80e+00 2.33e+01  -7.5 3.84e+03    -  3.38e-01 2.35e-01h  1
 257 -1.3792546e-01 8.62e+00 5.23e+01  -7.5 3.44e+03    -  2.99e-01 6.73e-02h  1
 258 -1.3792791e-01 8.59e+00 1.10e+02  -7.5 2.41e+02  -9.0 3.60e-01 2.99e-03h  1
 259 -1.3804518e-01 7.38e+00 9.22e+01  -7.5 7.63e+01  -7.7 9.81e-02 1.41e-01h  1
iter    objective    inf_pr   inf_du lg(mu)  ||d||  lg(rg) alpha_du alpha_pr  ls
 260 -1.3808224e-01 6.66e+00 8.55e+01  -7.5 6.25e+01  -8.1 1.09e-01 9.77e-02h  1
 261 -1.3818600e-01 4.45e+00 6.62e+01  -7.5 9.36e+01  -8.6 2.14e-01 3.31e-01h  1
 262 -1.3823840e-01 3.99e+00 8.02e+01  -7.5 2.39e+02  -9.1 1.96e-03 1.05e-01h  1
 263 -1.3830789e-01 3.34e+00 7.36e+01  -7.5 4.39e+02  -9.6 1.09e-01 1.68e-01h  1
Error in an AMPL evaluation. Run with "halt_on_ampl_error yes" to see details.
Warning: Cutting back alpha due to evaluation error
 264 -1.3847369e-01 5.23e+00 6.33e+01  -7.5 3.37e+03    -  1.62e-01 1.95e-01h  2
 265 -1.3857710e-01 5.46e+00 5.75e+01  -7.5 2.95e+03    -  9.54e-02 1.40e-01h  1
 266 -1.3873378e-01 1.56e+01 4.39e+01  -7.5 4.17e+03    -  2.40e-01 2.37e-01h  1
 267 -1.3884048e-01 2.37e+01 3.18e+01  -7.5 3.55e+03    -  4.54e-01 2.71e-01h  1
 268 -1.3884057e-01 2.37e+01 3.18e+01  -7.5 4.05e+03 -10.0 6.89e-04 1.91e-04h  1
 269 -1.3887061e-01 1.85e+01 1.20e+03  -7.5 2.21e+03    -  2.23e-04 2.52e-01f  1
iter    objective    inf_pr   inf_du lg(mu)  ||d||  lg(rg) alpha_du alpha_pr  ls
 270 -1.3887525e-01 1.72e+01 1.09e+03  -7.5 1.90e+02  -9.6 2.46e-01 7.41e-02h  1
 271 -1.3888635e-01 8.82e+00 4.35e+01  -7.5 5.26e+02 -10.1 2.50e-01 5.60e-01h  1
 272 -1.3894834e-01 2.18e+01 9.66e+01  -7.5 6.76e+03    -  2.85e-01 1.50e-01h  1
 273 -1.3901268e-01 4.19e+01 1.58e+02  -7.5 4.70e+03    -  2.97e-01 2.88e-01h  1
 274 -1.3901717e-01 4.01e+01 1.51e+02  -7.5 1.83e+03    -  3.30e-01 4.60e-02h  1
 275 -1.3907545e-01 5.33e+01 6.36e+02  -7.5 3.14e+03    -  7.14e-02 4.51e-01h  1
 276 -1.3908008e-01 4.87e+01 1.15e+03  -7.5 4.39e+03    -  2.59e-02 8.61e-02h  1
 277 -1.3908575e-01 4.81e+01 1.13e+03  -7.5 2.51e+04    -  7.73e-02 1.30e-02h  1
 278 -1.3910555e-01 4.12e+01 9.25e+02  -7.5 2.17e+03    -  5.72e-01 2.35e-01h  1
 279 -1.3913081e-01 3.38e+01 6.85e+02  -7.5 1.79e+03    -  8.85e-01 3.13e-01h  1
iter    objective    inf_pr   inf_du lg(mu)  ||d||  lg(rg) alpha_du alpha_pr  ls
 280 -1.3917108e-01 3.05e+01 4.89e+02  -7.5 1.76e+03    -  4.39e-02 4.92e-01h  1
 281 -1.3918150e-01 2.77e+01 4.39e+02  -7.5 1.70e+03    -  5.35e-02 1.14e-01h  1
 282 -1.3920664e-01 2.42e+01 3.41e+02  -7.5 1.69e+03    -  2.74e-01 2.88e-01h  1
 283 -1.3923775e-01 2.19e+01 2.66e+02  -7.5 2.32e+03    -  1.70e-01 3.11e-01h  1
 284 -1.3926313e-01 1.97e+01 3.26e+02  -7.5 3.19e+03 -10.6 2.97e-02 2.31e-01h  1
 285 -1.3926497e-01 1.94e+01 3.26e+02  -7.5 2.05e+03 -11.0 1.52e-02 1.77e-02h  1
 286 -1.3928504e-01 1.78e+01 2.69e+02  -7.5 1.68e+03 -11.5 1.61e-01 2.13e-01h  1
 287 -1.3928748e-01 1.74e+01 2.66e+02  -7.5 1.94e+03    -  2.10e-01 2.26e-02h  1
 288 -1.3929306e-01 1.60e+01 9.46e+02  -7.5 2.27e+03 -12.0 9.87e-03 7.90e-02h  1
 289 -1.3931741e-01 1.99e+01 6.40e+02  -7.5 2.97e+03 -12.5 1.14e-01 3.22e-01h  1
iter    objective    inf_pr   inf_du lg(mu)  ||d||  lg(rg) alpha_du alpha_pr  ls
 290 -1.3931783e-01 4.22e+01 6.28e+02  -7.5 7.45e+04    -  1.75e-02 1.87e-02h  1
 291 -1.3933405e-01 3.79e+01 5.46e+02  -7.5 8.01e+03    -  1.33e-01 1.31e-01h  1
 292 -1.3934241e-01 3.52e+01 5.06e+02  -7.5 7.89e+03    -  2.95e-01 7.29e-02h  1
 293 -1.3937592e-01 4.41e+01 2.94e+02  -7.5 2.58e+03    -  1.97e-01 6.31e-01h  1
 294 -1.3938293e-01 4.12e+01 3.24e+02  -7.5 2.68e+03    -  1.82e-02 7.91e-02h  1
 295 -1.3942574e-01 2.81e+01 7.10e+02  -7.5 1.59e+03    -  3.25e-01 4.94e-01h  1
 296 -1.3946946e-01 1.58e+01 2.16e+03  -7.5 5.04e+02    -  1.95e-01 4.46e-01h  1
 297 -1.3949743e-01 1.27e+01 7.20e+02  -7.5 8.78e+02    -  3.21e-01 1.95e-01h  1
 298 -1.3953297e-01 1.05e+01 2.27e+03  -7.5 9.17e+02    -  9.98e-02 1.77e-01h  1
 299 -1.3953483e-01 1.02e+01 6.65e+06  -7.5 1.99e+03  -9.3 5.65e-05 2.78e-02h  1
iter    objective    inf_pr   inf_du lg(mu)  ||d||  lg(rg) alpha_du alpha_pr  ls
 300 -1.3960984e-01 1.05e-01 8.18e+03  -7.5 4.77e+01  -8.9 2.47e-02 1.00e+00h  1
 301 -1.3954827e-01 2.34e-01 3.30e+00  -7.5 3.90e+01  -9.4 4.38e-01 1.00e+00h  1
 302 -1.3957314e-01 2.51e-01 2.88e+00  -7.5 1.59e+02  -9.9 4.19e-01 1.80e-01h  2
 303 -1.3957357e-01 2.61e-01 2.95e+00  -7.5 1.10e+04    -  1.59e-01 1.50e-03h  4
 304 -1.3957510e-01 2.67e-01 2.94e+00  -7.5 1.59e+03    -  6.10e-02 1.21e-02h  4
 305 -1.3958115e-01 2.58e-01 3.67e+00  -7.5 3.50e+02 -10.4 1.00e+00 7.32e-02h  3
 306 -1.3958175e-01 2.57e-01 3.58e+00  -7.5 1.99e+03    -  5.46e-02 5.06e-03h  6
 307 -1.3960753e-01 5.04e+01 2.70e+02  -7.5 6.06e+04    -  4.23e-02 2.62e-02h  1
 308 -1.3962926e-01 3.58e+01 1.91e+02  -7.5 6.26e+02    -  9.52e-02 2.90e-01h  1
 309 -1.3964279e-01 2.33e+01 1.13e+02  -7.5 5.80e+02 -10.8 3.23e-01 3.52e-01h  1
iter    objective    inf_pr   inf_du lg(mu)  ||d||  lg(rg) alpha_du alpha_pr  ls
 310 -1.3967109e-01 4.12e+01 2.24e+02  -7.5 1.83e+03 -11.3 2.14e-02 8.15e-01h  1
 311 -1.3967126e-01 3.88e+01 2.11e+02  -7.5 1.75e+02  -8.2 5.71e-02 5.75e-02h  1
 312 -1.3967157e-01 3.44e+01 1.87e+02  -7.5 1.68e+02  -7.7 3.40e-01 1.14e-01h  1
 313 -1.3967320e-01 6.90e+00 2.64e+01  -7.5 1.45e+02  -8.2 3.10e-01 8.02e-01h  1
 314 -1.3967393e-01 4.03e-02 6.81e-01  -7.5 1.47e+01  -8.7 9.35e-01 1.00e+00h  1
 315 -1.3967458e-01 3.77e-02 3.52e-02  -7.5 1.96e+01  -9.2 1.00e+00 1.00e+00h  1
 316 -1.3967673e-01 1.98e-01 5.28e-01  -7.5 5.88e+01  -9.7 1.00e+00 1.00e+00h  1
 317 -1.3968370e-01 6.71e-01 5.99e+00  -7.5 1.88e+02 -10.1 1.00e+00 1.00e+00h  1
 318 -1.3971092e-01 1.20e+01 1.16e+02  -7.5 7.93e+02 -10.6 1.00e+00 1.00e+00h  1
 319 -1.3972362e-01 5.57e+00 5.29e+01  -7.5 4.09e+02 -10.2 1.00e+00 6.69e-01h  1
iter    objective    inf_pr   inf_du lg(mu)  ||d||  lg(rg) alpha_du alpha_pr  ls
 320 -1.3976051e-01 2.14e+01 3.17e+02  -7.5 3.24e+03 -10.7 5.76e-01 2.86e-01h  1
 321 -1.3975661e-01 4.63e+00 1.58e+02  -7.5 2.74e+02    -  1.73e-01 8.28e-01h  1
 322 -1.3976477e-01 4.26e+00 1.45e+02  -7.5 8.20e+02    -  1.00e+00 1.82e-01h  1
 323 -1.3976301e-01 2.67e-03 6.98e+00  -7.5 1.21e+01    -  1.00e+00 1.00e+00h  1
 324 -1.3976283e-01 2.40e-05 9.84e-03  -7.5 1.44e+00    -  1.00e+00 1.00e+00h  1
 325 -1.3976283e-01 3.25e-08 2.02e-06  -7.5 3.90e-02    -  1.00e+00 1.00e+00h  1
 326 -1.3976283e-01 4.58e-10 2.72e-12  -7.5 1.22e-06    -  1.00e+00 1.00e+00h  1
 327 -1.3976651e-01 2.60e-01 5.04e+00  -9.0 2.83e+02    -  7.46e-01 4.11e-01h  1
 328 -1.3976682e-01 2.44e-01 7.75e+00  -9.0 2.17e+02    -  9.28e-01 9.39e-02h  1
 329 -1.3976798e-01 1.68e-01 3.68e+00  -9.0 9.42e+01 -11.1 1.00e+00 9.51e-01h  1
iter    objective    inf_pr   inf_du lg(mu)  ||d||  lg(rg) alpha_du alpha_pr  ls
 330 -1.3976793e-01 1.03e-02 1.43e-01  -9.0 1.14e+02    -  5.34e-01 1.00e+00H  1
 331 -1.3976793e-01 1.03e-03 3.46e-06  -9.0 9.44e+00 -11.6 1.00e+00 1.00e+00h  1
 332 -1.3976793e-01 9.62e-03 5.51e-07  -9.0 2.88e+01 -12.1 1.00e+00 1.00e+00h  1
 333 -1.3976793e-01 1.30e-01 7.42e-06  -9.0 1.06e+02 -12.6 1.00e+00 1.00e+00h  1
 334 -1.3976802e-01 1.97e+01 9.97e-03  -9.0 1.35e+03 -13.0 4.77e-02 1.00e+00H  1
 335 -1.3976802e-01 1.73e+01 4.07e-03  -9.0 2.94e+02    -  1.00e+00 1.25e-01h  4
 336 -1.3976801e-01 1.62e+01 4.27e-03  -9.0 2.56e+02    -  1.00e+00 6.25e-02h  5
 337 -1.3976801e-01 1.57e+01 4.15e-03  -9.0 2.38e+02    -  1.00e+00 3.12e-02h  6
 338 -1.3976801e-01 1.56e+01 4.12e-03  -9.0 2.32e+02    -  1.00e+00 7.81e-03h  8
 339 -1.3976798e-01 7.56e-01 2.52e-05  -9.0 2.30e+02    -  1.00e+00 1.00e+00h  1
iter    objective    inf_pr   inf_du lg(mu)  ||d||  lg(rg) alpha_du alpha_pr  ls
 340 -1.3976802e-01 3.07e+00 4.83e-03  -9.0 4.13e+02 -12.6 1.09e-01 1.00e+00h  1
 341 -1.3976805e-01 1.21e+00 6.85e-03  -9.0 1.95e+02    -  1.36e-01 1.00e+00h  1
 342 -1.3976810e-01 9.30e-01 5.01e-05  -9.0 2.77e+02 -12.2 1.00e+00 1.00e+00h  1
 343 -1.3976831e-01 1.70e+01 9.05e-04  -9.0 1.18e+03 -12.7 1.00e+00 1.00e+00h  1
 344 -1.3976853e-01 4.03e+00 2.53e-04  -9.0 5.46e+02 -12.2 1.00e+00 1.00e+00h  1
 345 -1.3976944e-01 8.82e+01 5.79e-03  -9.0 3.44e+03 -12.7 6.34e-01 7.56e-01h  1
 346 -1.3976933e-01 6.35e+01 3.74e-01  -9.0 1.22e+03    -  1.00e+00 2.98e-01h  1
 347 -1.3976900e-01 1.25e+01 1.93e+00  -9.0 1.00e+03    -  2.29e-03 1.00e+00h  1
 348 -1.3976921e-01 1.58e+00 1.59e-04  -9.0 3.28e+02    -  1.00e+00 1.00e+00h  1
 349 -1.3976976e-01 1.64e+01 5.63e-03  -9.0 1.09e+03 -12.3 7.93e-01 1.00e+00h  1
iter    objective    inf_pr   inf_du lg(mu)  ||d||  lg(rg) alpha_du alpha_pr  ls
 350 -1.3977110e-01 7.18e+01 2.54e-02  -9.0 3.44e+03 -12.8 2.68e-01 6.22e-01h  1
 351 -1.3977250e-01 5.48e+01 1.39e+00  -9.0 1.81e+03    -  3.57e-01 1.00e+00h  1
 352 -1.3977274e-01 5.24e+01 1.18e-01  -9.0 4.07e+03    -  2.08e-01 7.23e-02h  1
 353 -1.3977434e-01 5.28e+01 1.03e-02  -9.0 1.70e+03    -  1.00e+00 1.00e+00h  1
 354 -1.3977529e-01 3.96e+01 2.65e+00  -9.0 1.61e+03    -  9.85e-03 5.76e-01h  1
 355 -1.3977698e-01 3.99e+01 2.82e+02  -9.0 1.38e+03    -  3.19e-02 1.00e+00h  1
 356 -1.3977803e-01 7.72e+00 1.00e+01  -9.0 5.61e+02 -11.4 4.41e-01 1.00e+00h  1
 357 -1.3978009e-01 3.63e+01 3.06e+00  -9.0 1.78e+03 -11.9 6.95e-01 6.94e-01h  1
 358 -1.3977837e-01 1.83e+01 2.93e-02  -9.0 9.05e+02    -  4.94e-01 1.00e+00h  1
 359 -1.3977994e-01 3.21e+01 4.03e-02  -9.0 3.50e+03    -  3.19e-03 2.57e-01h  1
iter    objective    inf_pr   inf_du lg(mu)  ||d||  lg(rg) alpha_du alpha_pr  ls
 360 -1.3978031e-01 6.37e-04 3.13e-03  -9.0 3.33e+01    -  1.00e+00 1.00e+00h  1
 361 -1.3978028e-01 1.31e-05 9.04e-05  -9.0 7.38e-01    -  1.00e+00 1.00e+00h  1
 362 -1.3978028e-01 5.35e-10 2.69e-10  -9.0 4.71e-03    -  1.00e+00 1.00e+00h  1

Number of Iterations....: 362

                                   (scaled)                 (unscaled)
Objective...............:  -1.3978028493128297e-01   -1.3978028493128297e-01
Dual infeasibility......:   2.6946780574245410e-10    2.6946780574245410e-10
Constraint violation....:   2.7216363964230213e-10    5.3478288464248180e-10
Complementarity.........:   9.0909092043298611e-10    9.0909092043298611e-10
Overall NLP error.......:   9.0909092043298611e-10    9.0909092043298611e-10


Number of objective function evaluations             = 754
Number of objective gradient evaluations             = 361
Number of equality constraint evaluations            = 759
Number of inequality constraint evaluations          = 755
Number of equality constraint Jacobian evaluations   = 366
Number of inequality constraint Jacobian evaluations = 366
Number of Lagrangian Hessian evaluations             = 362
Total CPU secs in IPOPT (w/o function evaluations)   =    191.237
Total CPU secs in NLP function evaluations           =      6.903

EXIT: Optimal Solution Found.
